c Generated map
c Size: 13 * 13, weights in range: 1 to 10, walls: True, with ratio 0.2
c dim 3 of 3
c
p sp 169 195
c graph contains 169 nodes and 195 arcs
c
a 1 2 10
a 2 1 10
a 2 15 9
a 15 2 9
a 2 3 10
a 3 2 10
a 3 16 3
a 16 3 3
a 3 4 9
a 4 3 9
a 4 17 4
a 17 4 4
a 6 19 4
a 19 6 4
a 6 7 4
a 7 6 4
a 7 20 3
a 20 7 3
a 7 8 6
a 8 7 6
a 8 21 2
a 21 8 2
a 8 9 7
a 9 8 7
a 9 22 4
a 22 9 4
a 9 10 8
a 10 9 8
a 10 23 4
a 23 10 4
a 10 11 5
a 11 10 5
a 11 24 6
a 24 11 6
a 15 28 6
a 28 15 6
a 15 16 5
a 16 15 5
a 16 17 5
a 17 16 5
a 17 30 7
a 30 17 7
a 19 32 2
a 32 19 2
a 19 20 1
a 20 19 1
a 20 33 4
a 33 20 4
a 20 21 2
a 21 20 2
a 21 34 6
a 34 21 6
a 21 22 5
a 22 21 5
a 22 35 5
a 35 22 5
a 22 23 10
a 23 22 10
a 23 24 5
a 24 23 5
a 24 37 3
a 37 24 3
a 24 25 5
a 25 24 5
a 28 41 9
a 41 28 9
a 30 43 10
a 43 30 10
a 32 45 3
a 45 32 3
a 32 33 4
a 33 32 4
a 33 46 9
a 46 33 9
a 33 34 10
a 34 33 10
a 34 35 6
a 35 34 6
a 35 48 6
a 48 35 6
a 39 52 9
a 52 39 9
a 40 53 9
a 53 40 9
a 40 41 8
a 41 40 8
a 41 54 4
a 54 41 4
a 41 42 4
a 42 41 4
a 42 55 5
a 55 42 5
a 42 43 6
a 43 42 6
a 43 56 5
a 56 43 5
a 45 58 2
a 58 45 2
a 45 46 5
a 46 45 5
a 46 59 2
a 59 46 2
a 48 61 3
a 61 48 3
a 48 49 9
a 49 48 9
a 49 62 4
a 62 49 4
a 51 64 10
a 64 51 10
a 51 52 7
a 52 51 7
a 52 65 6
a 65 52 6
a 53 54 8
a 54 53 8
a 54 67 6
a 67 54 6
a 54 55 1
a 55 54 1
a 55 56 2
a 56 55 2
a 58 71 3
a 71 58 3
a 58 59 9
a 59 58 9
a 59 72 7
a 72 59 7
a 61 74 5
a 74 61 5
a 61 62 7
a 62 61 7
a 62 75 1
a 75 62 1
a 62 63 6
a 63 62 6
a 63 76 6
a 76 63 6
a 63 64 4
a 64 63 4
a 64 77 10
a 77 64 10
a 64 65 5
a 65 64 5
a 65 78 2
a 78 65 2
a 67 80 1
a 80 67 1
a 70 71 10
a 71 70 10
a 71 84 2
a 84 71 2
a 71 72 5
a 72 71 5
a 72 85 5
a 85 72 5
a 72 73 3
a 73 72 3
a 73 86 5
a 86 73 5
a 73 74 6
a 74 73 6
a 74 87 6
a 87 74 6
a 74 75 8
a 75 74 8
a 75 76 8
a 76 75 8
a 76 89 3
a 89 76 3
a 76 77 2
a 77 76 2
a 77 90 4
a 90 77 4
a 77 78 3
a 78 77 3
a 78 91 6
a 91 78 6
a 79 80 10
a 80 79 10
a 80 93 9
a 93 80 9
a 82 95 9
a 95 82 9
a 84 97 4
a 97 84 4
a 84 85 2
a 85 84 2
a 85 98 4
a 98 85 4
a 85 86 4
a 86 85 4
a 86 99 10
a 99 86 10
a 86 87 3
a 87 86 3
a 89 102 6
a 102 89 6
a 89 90 5
a 90 89 5
a 90 103 7
a 103 90 7
a 90 91 9
a 91 90 9
a 93 106 5
a 106 93 5
a 93 94 7
a 94 93 7
a 94 107 5
a 107 94 5
a 94 95 5
a 95 94 5
a 95 108 1
a 108 95 1
a 95 96 1
a 96 95 1
a 96 109 6
a 109 96 6
a 96 97 8
a 97 96 8
a 97 110 7
a 110 97 7
a 97 98 2
a 98 97 2
a 98 111 1
a 111 98 1
a 98 99 4
a 99 98 4
a 99 112 10
a 112 99 10
a 101 114 9
a 114 101 9
a 101 102 2
a 102 101 2
a 102 115 7
a 115 102 7
a 102 103 7
a 103 102 7
a 103 116 1
a 116 103 1
a 105 118 6
a 118 105 6
a 105 106 5
a 106 105 5
a 106 107 2
a 107 106 2
a 107 120 7
a 120 107 7
a 107 108 7
a 108 107 7
a 108 121 2
a 121 108 2
a 108 109 8
a 109 108 8
a 109 122 1
a 122 109 1
a 109 110 10
a 110 109 10
a 110 123 5
a 123 110 5
a 110 111 3
a 111 110 3
a 111 112 7
a 112 111 7
a 112 113 2
a 113 112 2
a 113 114 10
a 114 113 10
a 114 127 9
a 127 114 9
a 114 115 9
a 115 114 9
a 115 128 4
a 128 115 4
a 115 116 3
a 116 115 3
a 116 117 5
a 117 116 5
a 117 130 1
a 130 117 1
a 118 131 5
a 131 118 5
a 120 133 10
a 133 120 10
a 120 121 1
a 121 120 1
a 121 122 3
a 122 121 3
a 122 135 3
a 135 122 3
a 122 123 9
a 123 122 9
a 123 136 5
a 136 123 5
a 127 140 2
a 140 127 2
a 127 128 6
a 128 127 6
a 130 143 7
a 143 130 7
a 131 144 1
a 144 131 1
a 131 132 4
a 132 131 4
a 132 145 1
a 145 132 1
a 132 133 2
a 133 132 2
a 135 148 4
a 148 135 4
a 135 136 10
a 136 135 10
a 136 149 2
a 149 136 2
a 136 137 4
a 137 136 4
a 137 150 10
a 150 137 10
a 137 138 10
a 138 137 10
a 138 151 5
a 151 138 5
a 138 139 3
a 139 138 3
a 139 152 3
a 152 139 3
a 139 140 9
a 140 139 9
a 140 153 3
a 153 140 3
a 142 143 7
a 143 142 7
a 143 156 7
a 156 143 7
a 144 157 3
a 157 144 3
a 144 145 6
a 145 144 6
a 145 158 8
a 158 145 8
a 147 160 9
a 160 147 9
a 147 148 7
a 148 147 7
a 148 161 10
a 161 148 10
a 148 149 2
a 149 148 2
a 149 162 9
a 162 149 9
a 149 150 7
a 150 149 7
a 150 163 5
a 163 150 5
a 150 151 4
a 151 150 4
a 151 152 2
a 152 151 2
a 152 165 7
a 165 152 7
a 152 153 1
a 153 152 1
a 153 166 5
a 166 153 5
a 153 154 5
a 154 153 5
a 154 167 2
a 167 154 2
a 156 169 3
a 169 156 3
a 157 158 5
a 158 157 5
a 158 159 1
a 159 158 1
a 159 160 5
a 160 159 5
a 160 161 6
a 161 160 6
a 161 162 3
a 162 161 3
a 162 163 6
a 163 162 6
a 165 166 3
a 166 165 3
a 166 167 8
a 167 166 8
a 167 168 8
a 168 167 8
a 168 169 2
a 169 168 2
